c ren 1 -> 1
c ren 2 -> 2
c ren 4 -> 3
c ren 6 -> 4
c ren 8 -> 5
c ren 9 -> 6
c ren 11 -> 7
c ren 14 -> 8
c ren 17 -> 9
c ren 20 -> 10
c ren 23 -> 11
c ren 24 -> 12
c ren 26 -> 13
c ren 29 -> 14
c ren 32 -> 15
c ren 35 -> 16
c ren 38 -> 17
c ren 39 -> 18
c ren 42 -> 19
c ren 43 -> 20
c ren 45 -> 21
c ren 50 -> 22
c ren 93 -> 23
c ren 99 -> 24
c ren 100 -> 25
c ren 112 -> 26
c ren 114 -> 27
c ren 122 -> 28
c ren 141 -> 29
p cnf 29 66
a 1 2 3 5 6 7 8 9 11 12 13 15 17 19 20 21 25 26 28 29 0
d 23 1 5 0
d 24 11 15 0
d 27 17 19 0
e 4 10 14 16 18 22 0
-1 2 -3 4 0
3 -4 -10 12 13 -14 -16 -18 20 21 -22 -23 0
-2 -4 -10 12 13 -14 -16 -18 20 21 -22 -23 0
1 3 4 0
2 -3 -4 6 7 8 9 -10 12 13 -14 -16 -18 20 21 -22 23 0
-4 6 7 8 9 -10 -13 -14 -16 -18 20 21 -22 -24 26 -29 0
2 3 -4 -7 -10 -14 -16 -18 -22 25 -27 28 29 0
2 3 -4 -8 -10 -14 -16 -18 -22 25 -26 -27 0
-4 -6 8 9 -10 -14 -16 -18 20 21 -22 -24 25 26 28 29 0
6 7 8 9 -17 18 0
-9 17 18 0
-8 17 18 0
2 3 -4 -10 -14 -16 -18 -20 -22 25 -27 28 29 0
-11 12 13 14 0
-4 6 7 8 9 -10 -12 -14 -16 -18 20 21 -22 -24 26 -28 0
-3 -4 6 7 8 9 -10 -14 -16 -18 20 21 -22 -24 26 -29 0
-4 6 7 8 9 -10 -13 -14 -16 -18 20 21 -22 -24 -25 0
2 3 -15 16 0
-3 15 16 0
1 -2 4 0
-4 -9 -10 12 13 -14 -16 -18 20 21 -22 -23 0
2 3 -4 -9 -10 -14 -16 -18 -22 25 -27 28 29 0
5 -8 10 0
19 -20 22 0
2 3 -4 6 7 8 9 -10 12 13 -14 -16 -18 20 21 -22 25 27 28 29 0
-12 19 22 0
12 13 -19 20 21 22 0
2 3 -4 6 7 8 9 -10 12 13 -14 -16 -18 20 21 -22 24 26 -28 0
2 3 -4 -10 -14 -16 -18 -20 -22 25 -26 -27 0
2 3 -4 -10 -14 -16 -18 -21 -22 25 -27 28 29 0
19 -21 22 0
-4 6 7 8 9 -10 -13 -14 -16 -18 20 21 -22 -24 26 -28 0
5 -7 10 0
-4 -7 -10 12 13 -14 -16 -18 20 21 -22 -23 0
2 3 -4 -6 -10 -14 -16 -18 -22 25 -26 -27 0
-4 -7 8 9 -10 -14 -16 -18 20 21 -22 -24 25 26 28 29 0
-2 -4 6 7 8 9 -10 -14 -16 -18 20 21 -22 -24 26 -29 0
2 3 -4 -6 -10 -14 -16 -18 -22 25 -27 28 29 0
-5 6 7 8 9 10 0
5 -6 10 0
-7 17 18 0
-2 15 16 0
2 3 -4 -7 -10 -14 -16 -18 -22 25 -26 -27 0
-4 -8 -10 12 13 -14 -16 -18 20 21 -22 -23 0
2 3 -4 6 7 8 9 -10 12 13 -14 -16 -18 20 21 -22 25 -26 27 0
2 3 -4 -9 -10 -14 -16 -18 -22 25 -26 -27 0
2 3 -4 6 7 8 9 -10 12 13 -14 -16 -18 20 21 -22 24 -25 0
-4 6 7 8 9 -10 -12 -14 -16 -18 20 21 -22 -24 26 -29 0
-3 -4 6 7 8 9 -10 -14 -16 -18 20 21 -22 -24 26 -28 0
-4 -6 -10 12 13 -14 -16 -18 20 21 -22 -23 0
2 3 -4 -10 -13 -14 -16 -18 -22 25 -27 28 29 0
-3 -4 6 7 8 9 -10 -14 -16 -18 20 21 -22 -24 -25 0
2 3 -4 -10 -12 -14 -16 -18 -22 25 -27 28 29 0
-4 6 7 8 9 -10 -12 -14 -16 -18 20 21 -22 -24 -25 0
-6 17 18 0
2 3 -4 6 7 8 9 -10 12 13 -14 -16 -18 20 21 -22 24 26 -29 0
2 3 -4 -10 -13 -14 -16 -18 -22 25 -26 -27 0
11 -12 14 0
11 -13 14 0
-2 -4 6 7 8 9 -10 -14 -16 -18 20 21 -22 -24 26 -28 0
2 3 -4 -10 -14 -16 -18 -21 -22 25 -26 -27 0
-13 19 22 0
-2 -4 6 7 8 9 -10 -14 -16 -18 20 21 -22 -24 -25 0
2 3 -4 -8 -10 -14 -16 -18 -22 25 -27 28 29 0
5 -9 10 0
2 3 -4 -10 -12 -14 -16 -18 -22 25 -26 -27 0
